c description: Pigeonhole principle formula for 3 pigeons and 4 holes
c generator: CNFgen (0.9.0)
c copyright: (C) 2012-2020 Massimo Lauria <massimo.lauria@uniroma1.it>
c url: https://massimolauria.net/cnfgen
c command line: cnfgen php 3 4
c
p cnf 12 15
1 2 3 4 0
5 6 7 8 0
9 10 11 12 0
-1 -5 0
-1 -9 0
-5 -9 0
-2 -6 0
-2 -10 0
-6 -10 0
-3 -7 0
-3 -11 0
-7 -11 0
-4 -8 0
-4 -12 0
-8 -12 0
